# Objective value = 298.204232460413
x[0] 1
x[1] 0
x[2] 1
x[3] 0
x[4] 0
x[5] 0
x[6] 0
x[7] 1
x[8] 1
x[9] 1
x[10] 1
x[11] 1
x[12] 0
x[13] 1
x[14] 1
x[15] 0
x[16] 0
x[17] 0
x[18] 0
x[19] 0
x[20] 0
x[21] 0
x[22] 1
x[23] 1
x[24] 0
x[25] 1
x[26] 0
x[27] 0
x[28] 0
x[29] 0
x[30] 1
x[31] 1
x[32] 1
x[33] 1
x[34] 0
x[35] 1
x[36] 0
x[37] 0
x[38] 0
x[39] 0
x[40] 1
x[41] 0
x[42] 1
x[43] 1
x[44] 1
x[45] 0
x[46] 0
x[47] 0
x[48] 0
x[49] 0
x[50] 1
x[51] 1
x[52] 0
x[53] 0
x[54] 0
x[55] 1
x[56] 0
x[57] 0
x[58] 0
x[59] 0
x[60] 0
x[61] 0
x[62] 1
x[63] 0
x[64] 0
x[65] 1
x[66] 0
x[67] 0
x[68] 0
x[69] 0
x[70] 1
x[71] 0
x[72] 0
x[73] 1
x[74] 1
x[75] 0
x[76] 1
x[77] 1
x[78] 0
x[79] 0
x[80] 1
x[81] 0
x[82] 1
x[83] 0
x[84] 0
x[85] 1
x[86] 0
x[87] 1
x[88] 0
x[89] 0
x[90] 1
x[91] 0
x[92] 0
x[93] 1
x[94] 0
x[95] 0
x[96] 1
x[97] 0
x[98] 0
x[99] 1
x[100] 1
x[101] 1
x[102] 0
x[103] 0
x[104] 0
x[105] 0
x[106] 0
x[107] 0
x[108] 1
x[109] 1
x[110] 0
x[111] 1
x[112] 0
x[113] 0
x[114] 0
x[115] 0
x[116] 0
x[117] 0
x[118] 1
x[119] 1
x[120] 0
x[121] 0
x[122] 1
x[123] 1
x[124] 1
x[125] 0
x[126] 1
x[127] 1
x[128] 1
x[129] 1
x[130] 0
x[131] 0
x[132] 0
x[133] 0
x[134] 1
x[135] 0
x[136] 0
x[137] 0
x[138] 1
x[139] 1
x[140] 0
x[141] 1
x[142] 0
x[143] 0
x[144] 1
x[145] 1
x[146] 0
x[147] 0
x[148] 1
x[149] 0
x[150] 1
x[151] 0
x[152] 0
x[153] 1
x[154] 1
x[155] 0
x[156] 0
x[157] 1
x[158] 0
x[159] 0
x[160] 1
x[161] 0
x[162] 0
x[163] 1
x[164] 0
x[165] 0
x[166] 1
x[167] 0
x[168] 0
x[169] 0
x[170] 0
x[171] 0
x[172] 0
x[173] 0
x[174] 1
x[175] 0
x[176] 1
x[177] 0
x[178] 1
x[179] 1
x[180] 0
x[181] 1
x[182] 1
x[183] 0
x[184] 0
x[185] 1
x[186] 1
x[187] 1
x[188] 1
x[189] 0
x[190] 1
x[191] 0
x[192] 1
x[193] 1
x[194] 1
x[195] 1
x[196] 0
x[197] 0
x[198] 0
x[199] 0
x[200] 1
x[201] 0
x[202] 1
x[203] 0
x[204] 0
x[205] 0
x[206] 0
x[207] 1
x[208] 0
x[209] 0
x[210] 1
x[211] 0
x[212] 1
x[213] 1
x[214] 1
x[215] 0
x[216] 0
x[217] 0
x[218] 1
x[219] 0
x[220] 1
x[221] 0
x[222] 1
x[223] 0
x[224] 1
x[225] 1
x[226] 1
x[227] 1
x[228] 1
x[229] 0
x[230] 0
x[231] 1
x[232] 0
x[233] 0
x[234] 0
x[235] 0
x[236] 0
x[237] 0
x[238] 1
x[239] 1
x[240] 0
x[241] 0
x[242] 1
x[243] 1
x[244] 0
x[245] 1
x[246] 0
x[247] 0
x[248] 1
x[249] 1
x[250] 0
x[251] 0
x[252] 0
x[253] 1
x[254] 0
x[255] 1
x[256] 1
x[257] 1
x[258] 0
x[259] 0
x[260] 0
x[261] 0
x[262] 0
x[263] 0
x[264] 0
x[265] 0
x[266] 1
x[267] 1
x[268] 0
x[269] 1
x[270] 0
x[271] 0
x[272] 0
x[273] 0
x[274] 1
x[275] 1
x[276] 1
x[277] 1
x[278] 0
x[279] 0
x[280] 0
x[281] 1
x[282] 0
x[283] 1
x[284] 0
x[285] 0
x[286] 1
x[287] 0
x[288] 0
x[289] 0
x[290] 1
x[291] 0
x[292] 0
x[293] 1
x[294] 0
x[295] 1
x[296] 0
x[297] 0
x[298] 0
x[299] 0
x[300] 1
x[301] 1
x[302] 0
x[303] 1
x[304] 1
x[305] 1
x[306] 1
x[307] 0
x[308] 1
x[309] 0
x[310] 1
x[311] 1
x[312] 1
x[313] 1
x[314] 1
x[315] 0
x[316] 0
x[317] 0
x[318] 0
x[319] 1
x[320] 1
x[321] 1
x[322] 1
x[323] 1
x[324] 1
x[325] 1
x[326] 0
x[327] 1
x[328] 1
x[329] 1
x[330] 1
x[331] 0
x[332] 0
x[333] 1
x[334] 0
x[335] 1
x[336] 0
x[337] 0
x[338] 0
x[339] 0
x[340] 0
x[341] 1
x[342] 0
x[343] 0
x[344] 0
x[345] 0
x[346] 1
x[347] 1
x[348] 1
x[349] 1
x[350] 1
x[351] 1
x[352] 0
x[353] 0
x[354] 1
x[355] 1
x[356] 1
x[357] 1
x[358] 1
x[359] 0
x[360] 0
x[361] 1
x[362] 0
x[363] 1
x[364] 1
x[365] 0
x[366] 1
x[367] 1
x[368] 1
x[369] 1
x[370] 0
x[371] 0
x[372] 1
x[373] 0
x[374] 1
x[375] 1
x[376] 1
x[377] 0
x[378] 1
x[379] 0
x[380] 1
x[381] 0
x[382] 0
x[383] 0
x[384] 0
x[385] 0
x[386] 1
x[387] 1
x[388] 0
x[389] 0
x[390] 1
x[391] 1
x[392] 0
x[393] 0
x[394] 1
x[395] 1
x[396] 0
x[397] 0
x[398] 0
x[399] 1
x[400] 1
x[401] 0
x[402] 1
x[403] 0
x[404] 0
x[405] 0
x[406] 1
x[407] 1
x[408] 0
x[409] 1
x[410] 1
x[411] 1
x[412] 1
x[413] 0
x[414] 1
x[415] 1
x[416] 1
x[417] 0
x[418] 0
x[419] 1
x[420] 0
x[421] 1
x[422] 0
x[423] 0
x[424] 1
x[425] 0
x[426] 0
x[427] 1
x[428] 1
x[429] 1
x[430] 1
x[431] 1
x[432] 0
x[433] 0
x[434] 1
x[435] 1
x[436] 1
x[437] 1
x[438] 0
x[439] 0
x[440] 1
x[441] 0
x[442] 0
x[443] 1
x[444] 1
x[445] 0
x[446] 0
x[447] 1
x[448] 0
x[449] 1
x[450] 1
x[451] 1
x[452] 0
x[453] 0
x[454] 0
x[455] 0
x[456] 1
x[457] 0
x[458] 1
x[459] 1
x[460] 0
x[461] 0
x[462] 1
x[463] 1
x[464] 1
x[465] 1
x[466] 0
x[467] 0
x[468] 1
x[469] 1
x[470] 1
x[471] 0
x[472] 0
x[473] 0
x[474] 0
x[475] 0
x[476] 1
x[477] 0
x[478] 0
x[479] 1
x[480] 1
x[481] 0
x[482] 1
x[483] 0
x[484] 0
x[485] 1
x[486] 0
x[487] 0
x[488] 0
x[489] 0
x[490] 0
x[491] 1
x[492] 1
x[493] 0
x[494] 1
x[495] 1
x[496] 0
x[497] 0
x[498] 1
x[499] 1
x[500] 0
x[501] 1
x[502] 0
x[503] 0
x[504] 0
x[505] 0
x[506] 1
x[507] 1
x[508] 0
x[509] 1
x[510] 0
x[511] 1
x[512] 0
x[513] 1
x[514] 0
x[515] 0
x[516] 0
x[517] 0
x[518] 1
x[519] 1
x[520] 0
x[521] 0
x[522] 1
x[523] 1
x[524] 1
x[525] 0
x[526] 0
x[527] 0
x[528] 1
x[529] 0
x[530] 1
x[531] 1
x[532] 1
x[533] 0
x[534] 0
x[535] 1
x[536] 1
x[537] 0
x[538] 1
x[539] 0
x[540] 1
x[541] 1
x[542] 1
x[543] 0
x[544] 0
x[545] 0
x[546] 0
x[547] 0
x[548] 1
x[549] 1
x[550] 0
x[551] 1
x[552] 0
x[553] 1
x[554] 1
x[555] 0
x[556] 1
x[557] 0
x[558] 1
x[559] 1
x[560] 1
x[561] 1
x[562] 1
x[563] 1
x[564] 1
x[565] 0
x[566] 1
x[567] 0
x[568] 0
x[569] 1
x[570] 1
x[571] 1
x[572] 1
x[573] 1
x[574] 0
x[575] 0
x[576] 0
x[577] 1
x[578] 0
x[579] 0
x[580] 1
x[581] 0
x[582] 1
x[583] 1
x[584] 1
x[585] 1
x[586] 0
x[587] 0
x[588] 0
x[589] 0
x[590] 0
x[591] 0
x[592] 0
x[593] 0
x[594] 1
x[595] 1
x[596] 1
x[597] 0
x[598] 0
x[599] 0
x[600] 0
x[601] 0
x[602] 1
x[603] 1
x[604] 0
x[605] 0
x[606] 0
x[607] 1
x[608] 0
x[609] 0
x[610] 0
x[611] 0
x[612] 1
x[613] 1
x[614] 0
x[615] 0
x[616] 1
x[617] 1
x[618] 1
x[619] 1
x[620] 0
x[621] 0
x[622] 0
x[623] 0
x[624] 0
x[625] 1
x[626] 1
x[627] 0
x[628] 0
x[629] 0
x[630] 0
x[631] 0
x[632] 1
x[633] 0
x[634] 0
x[635] 0
x[636] 0
x[637] 1
x[638] 1
x[639] 0
x[640] 1
x[641] 0
x[642] 1
x[643] 1
x[644] 0
x[645] 1
x[646] 0
x[647] 0
x[648] 0
x[649] 0
x[650] 1
x[651] 1
x[652] 1
x[653] 1
x[654] 1
x[655] 1
x[656] 0
x[657] 0
x[658] 1
x[659] 1
x[660] 1
x[661] 1
x[662] 1
x[663] 1
x[664] 0
x[665] 0
x[666] 1
x[667] 0
x[668] 0
x[669] 1
x[670] 1
x[671] 0
x[672] 1
x[673] 0
x[674] 0
x[675] 1
x[676] 0
x[677] 0
x[678] 1
x[679] 0
x[680] 1
x[681] 0
x[682] 1
x[683] 1
x[684] 1
x[685] 0
x[686] 1
x[687] 0
x[688] 0
x[689] 1
x[690] 0
x[691] 1
x[692] 1
x[693] 1
x[694] 1
x[695] 0
x[696] 0
x[697] 1
x[698] 1
x[699] 0
x[700] 0
x[701] 1
x[702] 1
x[703] 0
x[704] 1
x[705] 0
x[706] 0
x[707] 1
x[708] 0
x[709] 0
x[710] 0
x[711] 1
x[712] 0
x[713] 0
x[714] 0
x[715] 1
x[716] 0
x[717] 0
x[718] 1
x[719] 0
x[720] 1
x[721] 0
x[722] 0
x[723] 0
x[724] 0
x[725] 1
x[726] 1
x[727] 1
x[728] 0
x[729] 0
x[730] 1
x[731] 1
x[732] 0
x[733] 0
x[734] 1
x[735] 1
x[736] 1
x[737] 1
x[738] 1
x[739] 0
x[740] 1
x[741] 0
x[742] 0
x[743] 1
x[744] 1
x[745] 0
x[746] 1
x[747] 1
x[748] 1
x[749] 1
x[750] 0
x[751] 0
x[752] 0
x[753] 0
x[754] 0
x[755] 1
x[756] 1
x[757] 1
x[758] 0
x[759] 0
x[760] 1
x[761] 1
x[762] 0
x[763] 0
x[764] 1
x[765] 0
x[766] 0
x[767] 1
x[768] 1
x[769] 0
x[770] 1
x[771] 0
x[772] 1
x[773] 1
x[774] 0
x[775] 0
x[776] 0
x[777] 0
x[778] 0
x[779] 0
x[780] 0
x[781] 1
x[782] 1
x[783] 0
x[784] 1
x[785] 0
x[786] 0
x[787] 1
x[788] 1
x[789] 1
x[790] 1
x[791] 0
x[792] 1
x[793] 0
x[794] 1
x[795] 0
x[796] 1
x[797] 0
x[798] 0
x[799] 1
x[800] 1
x[801] 1
x[802] 0
x[803] 0
x[804] 1
x[805] 0
x[806] 1
x[807] 0
x[808] 1
x[809] 0
x[810] 0
x[811] 0
x[812] 1
x[813] 1
x[814] 0
x[815] 0
x[816] 0
x[817] 1
x[818] 0
x[819] 1
x[820] 1
x[821] 1
x[822] 0
x[823] 1
x[824] 0
x[825] 0
x[826] 1
x[827] 0
x[828] 1
x[829] 0
x[830] 0
x[831] 1
x[832] 1
x[833] 1
x[834] 0
x[835] 1
x[836] 0
x[837] 1
x[838] 1
x[839] 1
x[840] 1
x[841] 0
x[842] 0
x[843] 0
x[844] 1
x[845] 1
x[846] 0
x[847] 1
x[848] 0
x[849] 0
x[850] 0
x[851] 1
x[852] 0
x[853] 0
x[854] 1
x[855] 0
x[856] 0
x[857] 1
x[858] 0
x[859] 1
x[860] 1
x[861] 1
x[862] 1
x[863] 0
x[864] 0
x[865] 1
x[866] 1
x[867] 0
x[868] 0
x[869] 0
x[870] 1
x[871] 1
x[872] 0
x[873] 1
x[874] 1
x[875] 1
x[876] 0
x[877] 0
x[878] 0
x[879] 1
x[880] 0
x[881] 1
x[882] 1
x[883] 1
x[884] 1
x[885] 1
x[886] 0
x[887] 1
x[888] 0
x[889] 0
x[890] 1
x[891] 0
x[892] 0
x[893] 0
x[894] 0
x[895] 0
x[896] 1
x[897] 0
x[898] 1
x[899] 0
x[900] 1
x[901] 1
x[902] 0
x[903] 1
x[904] 0
x[905] 1
x[906] 0
x[907] 0
x[908] 0
x[909] 1
x[910] 1
x[911] 0
x[912] 1
x[913] 0
x[914] 0
x[915] 0
x[916] 0
x[917] 1
x[918] 1
x[919] 1
x[920] 0
x[921] 1
x[922] 1
x[923] 1
x[924] 0
x[925] 1
x[926] 0
x[927] 0
x[928] 0
x[929] 0
x[930] 0
x[931] 0
x[932] 0
x[933] 0
x[934] 0
x[935] 1
x[936] 0
x[937] 1
x[938] 0
x[939] 1
x[940] 1
x[941] 0
x[942] 1
x[943] 0
x[944] 1
x[945] 1
x[946] 1
x[947] 0
x[948] 1
x[949] 1
x[950] 0
x[951] 0
x[952] 0
x[953] 0
x[954] 0
x[955] 1
x[956] 0
x[957] 1
x[958] 1
x[959] 0
x[960] 1
x[961] 1
x[962] 0
x[963] 0
x[964] 0
x[965] 1
x[966] 1
x[967] 1
x[968] 0
x[969] 1
x[970] 0
x[971] 0
x[972] 1
x[973] 1
x[974] 0
x[975] 1
x[976] 0
x[977] 0
x[978] 1
x[979] 0
x[980] 1
x[981] 0
x[982] 0
x[983] 1
x[984] 0
x[985] 0
x[986] 0
x[987] 0
x[988] 1
x[989] 0
x[990] 1
x[991] 1
x[992] 0
x[993] 0
x[994] 1
x[995] 0
x[996] 1
x[997] 0
x[998] 1
x[999] 0
